p cnf 7230 17
-5018 -5381 -5386 0
-5020 -5383 -5388 0
-5382 5386 0
5020 -5384 0
-5016 5380 0
-5384 5388 0
-5387 -5388 0
5383 5384 0
5381 5382 0
5018 -5382 0
5385 5386 0
5026 -5386 0
-5026 -5385 0
-5379 -5380 0
-5028 5388 0
5379 5380 0
5028 -5388 0
